12814
5 255 266 135 93 3 207 361 393 373 146 189 10 125 242 31 262 388 176 28 378 37 75 220 297 63 321 27 126 12 43 376 131 283 183 86 46 302 325 78 198 144 364 70 81 241 94 235 61 324 33 171 105 303 310 334 143 99 386 270 82 274 20 368 166 371 215 227 66 22 367 358 203 1 4 169 256 45 161 34 286 237 258 90 232 383 102 261 225 287 315 114 392 366 156 359 85 159 308 190 398 53 95 197 29 163 25 200 331 389 356 187 312 87 278 348 289 400 54 395 234 205 268 317 173 164 17 186 117 282 202 214 285 216 336 129 120 295 39 304 222 115 137 56 273 275 339 157 92 354 360 299 385 139 122 2 148 110 293 327 344 158 307 130 311 251 276 397 76 320 68 253 48 124 142 62 329 254 362 32 59 224 363 100 11 132 332 390 314 195 387 382 73 212 281 226 228 80 337 377 14 141 260 280 5 
